language ESSENCE' 1.0
$ loaded file: carseqdata/csplib-instance-72
letting numcars=200
letting numclasses=26
letting numoptions=5
letting optMax=[1, 2, 1, 2, 1]
letting windowSize=[2, 3, 3, 5, 5]
letting numberPerClass=[9, 1, 4, 7, 1, 5, 11, 11, 1, 16, 23, 6, 6, 31, 14, 9, 4, 5, 3, 3, 3, 10, 9, 1, 1, 6]
letting optionsRequired=[[0, 0, 0, 0, 1], [0, 1, 1, 1, 1], [0, 1, 0, 0, 1], [1, 0, 0, 1, 0], [0, 1, 0, 1, 1], [0, 1, 1, 1, 0], [1, 0, 0, 0, 0], [0, 1, 1, 0, 0], [1, 0, 0, 1, 1], [0, 0, 0, 1, 0], [1, 1, 0, 0, 0], [1, 0, 0, 0, 1], [0, 0, 1, 1, 0], [0, 1, 0, 0, 0], [0, 1, 0, 1, 0], [0, 0, 1, 0, 0], [1, 0, 1, 0, 0], [1, 0, 1, 1, 0], [0, 0, 0, 1, 1], [1, 1, 1, 1, 0], [1, 1, 0, 0, 1], [1, 1, 1, 0, 0], [1, 1, 0, 0, 0], [0, 1, 1, 0, 1], [0, 0, 1, 0, 1], [1, 0, 0, 0, 1]]
